language ESSENCE' 1.0

letting R_FunctionND be
        [[0, 1, 0, 1; int(1..4)], [1, 0, 1, 0; int(1..4)], [0, 1, 0, 0; int(1..4)], [1, 0, 0, 0; int(1..4)]; int(1..4)]
$ Visualisation for R_FunctionND
$ 0 1 0 1
$ 1 0 1 0
$ 0 1 0 0
$ 1 0 0 0

